(set-info :origin "SVCOMP13 benchmarks generated by Arie Gurfinkel")
(set-info :status unsat)
(set-logic HORN)
(declare-fun cp-rel-bb.i
             (Real
              Real
              Real
              Real
              Real
              Real
              Real
              Real
              Real
              Real
              Real
              Real
              Real
              Real
              Real
              Real
              Real
              Real
              Real
              Real
              Real
              Real)
             Bool)
(declare-fun cp-rel-entry () Bool)
(declare-fun cp-rel-__UFO__0
             (Real
              Real
              Real
              Real
              Real
              Real
              Real
              Real
              Real
              Real
              Real
              Real
              Real
              Real
              Real
              Real
              Real
              Real
              Real
              Real
              Real
              Real)
             Bool)
(declare-fun cp-rel-UnifiedReturnBlock () Bool)
(assert |cp-rel-entry|)
(assert (forall ((?A Real) (?B Real) (?C Real) (?D Real) (?E Real) (?F Real) (?G Real) (?H Real) (?I Real) (?J Real) (?K Real) (?L Real) (?M Real) (?N Real) (?O Real) (?P Real) (?Q Real) (?R Real) (?S Real) (?T Real) (?U Real) (?V Real) (?W Bool) )(let (($x695747 (|cp-rel-bb.i| ?A ?B ?C ?D ?E ?F ?G ?H ?I ?J ?K ?L ?M ?N ?O ?P ?Q ?R ?S ?T ?U ?V)))
(let (($x309485 (= ?W true)))
(let (($x494013 (and |cp-rel-entry| (<= ?V 0.0) (>= ?U 0.0) (<= ?U 0.0) (>= ?T 0.0) (<= ?T 0.0) (>= ?S 0.0) (<= ?S 0.0) (>= ?R 0.0) (<= ?R 0.0) (>= ?Q 0.0) (<= ?Q 0.0) (>= ?P 123.0) (<= ?P 123.0) (>= ?O 0.0) (<= ?O 0.0) (>= ?N 0.0) (<= ?N 0.0) (>= ?M 0.0) (<= ?M 0.0) (>= ?L 0.0) (<= ?L 0.0) (>= ?K 0.0) (<= ?K 0.0) (>= ?J 0.0) (<= ?J 0.0) (>= ?I 0.0) (<= ?I 0.0) (>= ?H 0.0) (<= ?H 0.0) (>= ?G 0.0) (<= ?G 0.0) (>= ?F 0.0) (<= ?F 0.0) (>= ?E 0.0) (<= ?E 0.0) (>= ?D 0.0) (<= ?D 0.0) (>= ?C 0.0) (<= ?C 0.0) (>= ?B 0.0) (<= ?B 0.0) (>= ?A 0.0) (<= ?A 0.0) $x309485 (>= ?V 0.0))))
(=> $x494013 $x695747)))))
)
(assert (forall ((?A Real) (?B Real) (?C Real) (?D Real) (?E Real) (?F Real) (?G Real) (?H Real) (?I Real) (?J Real) (?K Real) (?L Real) (?M Real) (?N Real) (?O Real) (?P Real) (?Q Real) (?R Real) (?S Real) (?T Real) (?U Real) (?V Real) (?W Real) (?X Real) (?Y Real) (?Z Real) (?A1 Real) (?B1 Real) (?C1 Real) (?D1 Real) (?E1 Real) (?F1 Real) (?G1 Real) (?H1 Real) (?I1 Real) (?J1 Real) (?K1 Real) (?L1 Real) (?M1 Real) (?N1 Real) (?O1 Real) (?P1 Real) (?Q1 Real) (?R1 Real) (?S1 Bool) (?T1 Bool) (?U1 Bool) (?V1 Bool) (?W1 Bool) (?X1 Bool) (?Y1 Bool) (?Z1 Bool) (?A2 Bool) (?B2 Bool) (?C2 Bool) (?D2 Bool) (?E2 Bool) (?F2 Bool) (?G2 Bool) (?H2 Bool) (?I2 Bool) (?J2 Bool) (?K2 Bool) (?L2 Bool) (?M2 Bool) (?N2 Bool) (?O2 Bool) (?P2 Bool) (?Q2 Bool) (?R2 Bool) (?S2 Bool) (?T2 Bool) (?U2 Bool) (?V2 Bool) (?W2 Bool) (?X2 Bool) (?Y2 Bool) (?Z2 Bool) (?A3 Bool) (?B3 Bool) (?C3 Bool) (?D3 Bool) (?E3 Bool) (?F3 Bool) (?G3 Bool) (?H3 Bool) (?I3 Bool) (?J3 Bool) (?K3 Bool) (?L3 Bool) (?M3 Bool) (?N3 Bool) (?O3 Bool) (?P3 Bool) (?Q3 Bool) (?R3 Bool) (?S3 Bool) (?T3 Bool) (?U3 Bool) (?V3 Bool) (?W3 Bool) (?X3 Bool) (?Y3 Bool) (?Z3 Bool) (?A4 Bool) (?B4 Bool) (?C4 Bool) (?D4 Bool) (?E4 Bool) (?F4 Bool) (?G4 Bool) (?H4 Bool) (?I4 Bool) (?J4 Bool) (?K4 Bool) (?L4 Bool) (?M4 Bool) (?N4 Bool) (?O4 Bool) (?P4 Bool) (?Q4 Bool) (?R4 Bool) (?S4 Bool) (?T4 Bool) (?U4 Real) (?V4 Real) (?W4 Real) (?X4 Real) (?Y4 Real) (?Z4 Real) (?A5 Real) (?B5 Real) (?C5 Real) (?D5 Real) (?E5 Real) (?F5 Real) )(let (($x743908 (|cp-rel-bb.i| ?W ?X ?Y ?Z ?A1 ?B1 ?C1 ?D1 ?E1 ?F1 ?G1 ?H1 ?I1 ?J1 ?K1 ?L1 ?M1 ?N1 ?O1 ?P1 ?Q1 ?R1)))
(let (($x572388 (not ?W1)))
(let (($x84882 (or $x572388 ?X1)))
(let (($x814943 (not ?M2)))
(let (($x120399 (or $x814943 ?N2)))
(let (($x848437 (not ?T2)))
(let (($x253680 (or $x848437 ?U2)))
(let (($x252939 (not ?O3)))
(let (($x307826 (or $x252939 ?P3)))
(let (($x65195 (>= ?R1 ?V)))
(let (($x455771 (<= ?R1 ?V)))
(let (($x890360 (>= ?Q1 ?U)))
(let (($x131999 (<= ?Q1 ?U)))
(let (($x867982 (>= ?O1 ?S)))
(let (($x230540 (<= ?O1 ?S)))
(let (($x461274 (>= ?N1 ?R)))
(let (($x84975 (<= ?N1 ?R)))
(let (($x198699 (>= ?L1 ?P)))
(let (($x403433 (<= ?L1 ?P)))
(let (($x251178 (>= ?K1 ?O)))
(let (($x487311 (<= ?K1 ?O)))
(let (($x337724 (>= ?J1 ?N)))
(let (($x251693 (<= ?J1 ?N)))
(let (($x273764 (>= ?I1 ?M)))
(let (($x532005 (<= ?I1 ?M)))
(let (($x517714 (>= ?G1 ?K)))
(let (($x132065 (<= ?G1 ?K)))
(let (($x103851 (>= ?F1 ?J)))
(let (($x517728 (<= ?F1 ?J)))
(let (($x890468 (>= ?E1 ?I)))
(let (($x576769 (<= ?E1 ?I)))
(let (($x579657 (>= ?D1 ?H)))
(let (($x719903 (<= ?D1 ?H)))
(let (($x519743 (>= ?C1 ?G)))
(let (($x417490 (<= ?C1 ?G)))
(let (($x576787 (>= ?B1 ?F)))
(let (($x494452 (<= ?B1 ?F)))
(let (($x590723 (>= ?A1 ?E)))
(let (($x515560 (<= ?A1 ?E)))
(let (($x587146 (>= ?Z ?D)))
(let (($x197462 (<= ?Z ?D)))
(let (($x805331 (>= ?Y ?C)))
(let (($x139227 (<= ?Y ?C)))
(let (($x158081 (>= ?X ?B)))
(let (($x351541 (<= ?X ?B)))
(let (($x549341 (>= ?W ?U4)))
(let (($x253905 (<= ?W ?U4)))
(let (($x308096 (and ?D2 $x253905 $x549341 $x351541 $x158081 $x139227 $x805331 $x197462 $x587146 $x515560 $x590723 $x494452 $x576787 $x417490 $x519743 $x719903 $x579657 $x576769 $x890468 $x517728 $x103851 $x132065 $x517714 (<= ?H1 1.0) (>= ?H1 1.0) $x532005 $x273764 $x251693 $x337724 $x487311 $x251178 $x403433 $x198699 (<= ?M1 2.0) (>= ?M1 2.0) $x84975 $x461274 $x230540 $x867982 (<= ?P1 456.0) (>= ?P1 456.0) $x131999 $x890360 $x455771 $x65195)))
(let (($x249991 (>= ?P1 ?T)))
(let (($x255953 (<= ?P1 ?T)))
(let (($x506766 (>= ?M1 ?Q)))
(let (($x576782 (<= ?M1 ?Q)))
(let (($x506635 (>= ?H1 ?L)))
(let (($x309247 (<= ?H1 ?L)))
(let (($x257368 (not ?K2)))
(let (($x473430 (and ?F2 $x257368 $x253905 $x549341 $x351541 $x158081 $x139227 $x805331 $x197462 $x587146 $x515560 $x590723 $x494452 $x576787 $x417490 $x519743 $x719903 $x579657 $x576769 $x890468 $x517728 $x103851 (<= ?G1 1.0) (>= ?G1 1.0) $x309247 $x506635 $x532005 $x273764 $x251693 $x337724 $x487311 $x251178 $x403433 $x198699 $x576782 $x506766 $x84975 $x461274 $x230540 $x867982 $x255953 $x249991 $x131999 $x890360 $x455771 $x65195)))
(let (($x606639 (not ?R2)))
(let (($x639056 (and ?M2 $x606639 $x253905 $x549341 $x351541 $x158081 $x139227 $x805331 $x197462 $x587146 $x515560 $x590723 $x494452 $x576787 $x417490 $x519743 $x719903 $x579657 $x576769 $x890468 (<= ?F1 1.0) (>= ?F1 1.0) $x132065 $x517714 $x309247 $x506635 $x532005 $x273764 $x251693 $x337724 $x487311 $x251178 $x403433 $x198699 $x576782 $x506766 $x84975 $x461274 $x230540 $x867982 $x255953 $x249991 $x131999 $x890360 $x455771 $x65195)))
(let (($x839785 (not ?Y2)))
(let (($x880413 (and ?T2 $x839785 $x253905 $x549341 $x351541 $x158081 $x139227 $x805331 $x197462 $x587146 $x515560 $x590723 $x494452 $x576787 $x417490 $x519743 $x719903 $x579657 (<= ?E1 1.0) (>= ?E1 1.0) $x517728 $x103851 $x132065 $x517714 $x309247 $x506635 $x532005 $x273764 $x251693 $x337724 $x487311 $x251178 $x403433 $x198699 $x576782 $x506766 (<= ?N1 1.0) (>= ?N1 1.0) $x230540 $x867982 $x255953 $x249991 (<= ?Q1 123.0) (>= ?Q1 123.0) $x455771 $x65195)))
(let (($x344283 (not ?F3)))
(let (($x82164 (and ?A3 $x344283 $x253905 $x549341 $x351541 $x158081 $x139227 $x805331 $x197462 $x587146 $x515560 $x590723 $x494452 $x576787 $x417490 $x519743 (<= ?D1 1.0) (>= ?D1 1.0) $x576769 $x890468 $x517728 $x103851 $x132065 $x517714 $x309247 $x506635 $x532005 $x273764 $x251693 $x337724 $x487311 $x251178 $x403433 $x198699 $x576782 $x506766 $x84975 $x461274 (<= ?O1 2.0) (>= ?O1 2.0) $x255953 $x249991 $x131999 $x890360 (<= ?R1 456.0) (>= ?R1 456.0))))
(let (($x576527 (and ?H3 (not ?M3) $x253905 $x549341 $x351541 $x158081 $x139227 $x805331 $x197462 $x587146 $x515560 $x590723 $x494452 $x576787 (<= ?C1 1.0) (>= ?C1 1.0) $x719903 $x579657 $x576769 $x890468 $x517728 $x103851 $x132065 $x517714 $x309247 $x506635 $x532005 $x273764 $x251693 $x337724 $x487311 $x251178 $x403433 $x198699 $x576782 $x506766 $x84975 $x461274 $x230540 $x867982 $x255953 $x249991 $x131999 $x890360 $x455771 $x65195)))
(let (($x369896 (not ?T3)))
(let (($x483067 (and ?O3 $x369896 $x253905 $x549341 $x351541 $x158081 $x139227 $x805331 $x197462 $x587146 $x515560 $x590723 (<= ?B1 1.0) (>= ?B1 1.0) $x417490 $x519743 $x719903 $x579657 $x576769 $x890468 $x517728 $x103851 $x132065 $x517714 $x309247 $x506635 $x532005 $x273764 $x251693 $x337724 $x487311 $x251178 $x403433 $x198699 $x576782 $x506766 $x84975 $x461274 $x230540 $x867982 $x255953 $x249991 $x131999 $x890360 $x455771 $x65195)))
(let (($x652113 (not ?A4)))
(let (($x26964 (and ?V3 $x652113 $x253905 $x549341 $x351541 $x158081 $x139227 $x805331 $x197462 $x587146 (<= ?A1 1.0) (>= ?A1 1.0) $x494452 $x576787 $x417490 $x519743 $x719903 $x579657 $x576769 $x890468 $x517728 $x103851 $x132065 $x517714 $x309247 $x506635 (<= ?I1 1.0) (>= ?I1 1.0) (<= ?J1 2.0) (>= ?J1 2.0) (<= ?K1 3.0) (>= ?K1 3.0) $x403433 $x198699 $x576782 $x506766 $x84975 $x461274 $x230540 $x867982 $x255953 $x249991 $x131999 $x890360 $x455771 $x65195)))
(let (($x282313 (and ?C4 (not ?H4) $x253905 $x549341 $x351541 $x158081 $x139227 $x805331 (<= ?Z 1.0) (>= ?Z 1.0) $x515560 $x590723 $x494452 $x576787 $x417490 $x519743 $x719903 $x579657 $x576769 $x890468 $x517728 $x103851 $x132065 $x517714 $x309247 $x506635 $x532005 $x273764 $x251693 $x337724 $x487311 $x251178 $x403433 $x198699 $x576782 $x506766 $x84975 $x461274 (<= ?O1 1.0) (>= ?O1 1.0) $x255953 $x249991 $x131999 $x890360 (<= ?R1 123.0) (>= ?R1 123.0))))
(let (($x155423 (not ?O4)))
(let (($x74689 (and ?J4 $x155423 $x253905 $x549341 $x351541 $x158081 (<= ?Y 1.0) (>= ?Y 1.0) $x197462 $x587146 $x515560 $x590723 $x494452 $x576787 $x417490 $x519743 $x719903 $x579657 $x576769 $x890468 $x517728 $x103851 $x132065 $x517714 $x309247 $x506635 $x532005 $x273764 $x251693 $x337724 $x487311 $x251178 (<= ?L1 777.0) (>= ?L1 777.0) $x576782 $x506766 $x84975 $x461274 $x230540 $x867982 $x255953 $x249991 $x131999 $x890360 $x455771 $x65195)))
(let (($x532322 (and ?Q4 (not ?T4) $x253905 $x549341 (<= ?X 1.0) (>= ?X 1.0) $x139227 $x805331 $x197462 $x587146 $x515560 $x590723 $x494452 $x576787 $x417490 $x519743 $x719903 $x579657 $x576769 $x890468 $x517728 $x103851 $x132065 $x517714 $x309247 $x506635 $x532005 $x273764 $x251693 $x337724 $x487311 $x251178 $x403433 $x198699 $x576782 $x506766 $x84975 $x461274 (<= ?O1 1.0) (>= ?O1 1.0) $x255953 $x249991 $x131999 $x890360 (<= ?R1 123.0) (>= ?R1 123.0))))
(let (($x513142 (|cp-rel-bb.i| ?A ?B ?C ?D ?E ?F ?G ?H ?I ?J ?K ?L ?M ?N ?O ?P ?Q ?R ?S ?T ?U ?V)))
(let (($x493742 (and $x513142 (= ?S4 (= ?B 0.0)) (= ?O4 (= ?E5 0.0)) (= ?L4 (= ?C 0.0)) (= ?H4 (= ?D5 0.0)) (= ?E4 (= ?D 0.0)) (= ?A4 (= ?C5 0.0)) (= ?X3 (= ?E 0.0)) (= ?T3 (= ?B5 0.0)) (= ?Q3 (= ?F 0.0)) (= ?M3 (= ?A5 0.0)) (= ?J3 (= ?G 0.0)) (= ?F3 (= ?Z4 0.0)) (= ?C3 (= ?H 0.0)) (= ?Y2 (= ?Y4 0.0)) (= ?V2 (= ?I 0.0)) (= ?R2 (= ?X4 0.0)) (= ?O2 (= ?J 0.0)) (= ?K2 (= ?W4 0.0)) (= ?H2 (= ?K 0.0)) (= ?B2 (= ?V4 0.0)) (= ?Y1 (= ?L 0.0)) (= ?U4 (+ 1.0 ?A)) (= ?V1 (not (<= ?A 3.0))) (or $x532322 $x74689 $x282313 $x26964 $x483067 $x576527 $x82164 $x880413 $x639056 $x473430 $x308096) (or (not ?Q4) ?R4) (or (not ?Q4) (and ?M4 ?R4 ?S4)) (or (not ?M4) (and ?N4 (not ?P4)) (and ?P4 (not ?N4))) (or (not ?M4) (and ?J4 ?N4 ?O4) (and ?F4 ?P4 (not ?L4))) (or (not ?J4) ?K4) (or (not ?J4) (and ?F4 ?K4 ?L4)) (or (not ?F4) (and ?G4 (not ?I4)) (and ?I4 (not ?G4))) (or (not ?F4) (and ?C4 ?G4 ?H4) (and ?Y3 ?I4 (not ?E4))) (or (not ?C4) ?D4) (or (not ?C4) (and ?Y3 ?D4 ?E4)) (or (not ?Y3) (and ?Z3 (not ?B4)) (and ?B4 (not ?Z3))) (or (not ?Y3) (and ?V3 ?Z3 ?A4) (and ?R3 ?B4 (not ?X3))) (or (not ?V3) ?W3) (or (not ?V3) (and ?R3 ?W3 ?X3)) (or (not ?R3) (and ?S3 (not ?U3)) (and ?U3 (not ?S3))) (or (not ?R3) (and ?O3 ?S3 ?T3) (and ?K3 ?U3 (not ?Q3))) $x307826 (or $x252939 (and ?K3 ?P3 ?Q3)) (or (not ?K3) (and ?L3 (not ?N3)) (and ?N3 (not ?L3))) (or (not ?K3) (and ?H3 ?L3 ?M3) (and ?D3 ?N3 (not ?J3))) (or (not ?H3) ?I3) (or (not ?H3) (and ?D3 ?I3 ?J3)) (or (not ?D3) (and ?E3 (not ?G3)) (and ?G3 (not ?E3))) (or (not ?D3) (and ?A3 ?E3 ?F3) (and ?W2 ?G3 (not ?C3))) (or (not ?A3) ?B3) (or (not ?A3) (and ?W2 ?B3 ?C3)) (or (not ?W2) (and ?X2 (not ?Z2)) (and ?Z2 (not ?X2))) (or (not ?W2) (and ?T2 ?X2 ?Y2) (and ?P2 ?Z2 (not ?V2))) $x253680 (or $x848437 (and ?P2 ?U2 ?V2)) (or (not ?P2) (and ?Q2 (not ?S2)) (and ?S2 (not ?Q2))) (or (not ?P2) (and ?M2 ?Q2 ?R2) (and ?I2 ?S2 (not ?O2))) $x120399 (or $x814943 (and ?I2 ?N2 ?O2)) (or (not ?I2) (and ?J2 (not ?L2)) (and ?L2 (not ?J2))) (or (not ?I2) (and ?F2 ?J2 ?K2) (and ?Z1 ?L2 (not ?H2))) (or (not ?F2) ?G2) (or (not ?F2) (and ?Z1 ?G2 ?H2)) (or (not ?D2) ?E2) (or (not ?D2) (and ?W1 ?E2 (not ?B2))) (or (not ?Z1) (and ?A2 (not ?C2)) (and ?C2 (not ?A2))) (or (not ?Z1) (and ?W1 ?A2 ?B2) (and ?S1 ?C2 (not ?Y1))) $x84882 (or $x572388 (and ?S1 ?X1 ?Y1)) (or (not ?S1) ?U1) (or (not ?S1) (and ?T1 ?U1 (not ?V1))) (= ?T4 (= ?F5 0.0)))))
(=> $x493742 $x743908)))))))))))))))))))))))))))))))))))))))))))))))))))))))))))))))))))))))))))
)
(assert (forall ((?A Real) (?B Real) (?C Real) (?D Real) (?E Real) (?F Real) (?G Real) (?H Real) (?I Real) (?J Real) (?K Real) (?L Real) (?M Real) (?N Real) (?O Real) (?P Real) (?Q Real) (?R Real) (?S Real) (?T Real) (?U Real) (?V Real) (?W Bool) (?X Bool) (?Y Bool) (?Z Bool) (?A1 Bool) (?B1 Bool) (?C1 Bool) (?D1 Bool) (?E1 Bool) (?F1 Bool) (?G1 Bool) (?H1 Bool) (?I1 Bool) (?J1 Bool) (?K1 Bool) (?L1 Bool) (?M1 Bool) (?N1 Bool) (?O1 Bool) (?P1 Bool) (?Q1 Bool) (?R1 Bool) (?S1 Bool) (?T1 Bool) (?U1 Bool) (?V1 Bool) (?W1 Bool) (?X1 Bool) (?Y1 Bool) (?Z1 Bool) (?A2 Bool) (?B2 Bool) (?C2 Bool) (?D2 Bool) (?E2 Bool) (?F2 Bool) (?G2 Bool) (?H2 Bool) (?I2 Bool) (?J2 Bool) (?K2 Bool) (?L2 Bool) (?M2 Bool) (?N2 Bool) (?O2 Bool) (?P2 Bool) (?Q2 Bool) (?R2 Bool) (?S2 Bool) (?T2 Bool) (?U2 Bool) (?V2 Bool) (?W2 Bool) (?X2 Bool) (?Y2 Bool) (?Z2 Bool) (?A3 Bool) (?B3 Bool) (?C3 Bool) (?D3 Bool) (?E3 Bool) (?F3 Bool) (?G3 Bool) (?H3 Bool) (?I3 Bool) (?J3 Bool) (?K3 Bool) (?L3 Bool) (?M3 Bool) (?N3 Bool) (?O3 Bool) (?P3 Bool) (?Q3 Bool) (?R3 Bool) (?S3 Bool) (?T3 Bool) (?U3 Bool) (?V3 Bool) (?W3 Real) (?X3 Real) (?Y3 Real) (?Z3 Real) (?A4 Real) (?B4 Real) (?C4 Real) (?D4 Real) (?E4 Real) (?F4 Real) (?G4 Real) (?H4 Real) (?I4 Bool) (?J4 Bool) (?K4 Bool) (?L4 Bool) (?M4 Bool) (?N4 Bool) (?O4 Bool) (?P4 Bool) (?Q4 Bool) (?R4 Bool) (?S4 Bool) (?T4 Bool) (?U4 Bool) (?V4 Bool) (?W4 Bool) (?X4 Bool) (?Y4 Bool) (?Z4 Bool) (?A5 Bool) (?B5 Bool) (?C5 Bool) (?D5 Bool) (?E5 Bool) (?F5 Bool) (?G5 Bool) (?H5 Bool) (?I5 Bool) (?J5 Bool) (?K5 Bool) (?L5 Bool) (?M5 Bool) (?N5 Bool) (?O5 Bool) (?P5 Bool) (?Q5 Bool) (?R5 Bool) (?S5 Bool) (?T5 Bool) (?U5 Bool) (?V5 Bool) (?W5 Bool) (?X5 Bool) (?Y5 Bool) (?Z5 Bool) (?A6 Bool) (?B6 Bool) (?C6 Real) (?D6 Bool) (?E6 Bool) (?F6 Bool) (?G6 Bool) (?H6 Bool) (?I6 Bool) (?J6 Bool) (?K6 Bool) (?L6 Bool) (?M6 Bool) (?N6 Bool) (?O6 Bool) (?P6 Bool) (?Q6 Bool) (?R6 Bool) (?S6 Bool) (?T6 Bool) (?U6 Bool) (?V6 Bool) (?W6 Bool) (?X6 Bool) (?Y6 Bool) (?Z6 Bool) (?A7 Bool) (?B7 Bool) (?C7 Bool) (?D7 Bool) (?E7 Bool) (?F7 Bool) (?G7 Bool) (?H7 Bool) (?I7 Bool) (?J7 Bool) (?K7 Bool) (?L7 Bool) (?M7 Bool) (?N7 Bool) (?O7 Bool) (?P7 Real) (?Q7 Bool) (?R7 Bool) (?S7 Bool) (?T7 Bool) (?U7 Bool) (?V7 Bool) (?W7 Bool) (?X7 Real) (?Y7 Bool) (?Z7 Bool) (?A8 Bool) (?B8 Bool) (?C8 Bool) (?D8 Bool) (?E8 Bool) (?F8 Bool) (?G8 Bool) (?H8 Bool) (?I8 Bool) (?J8 Bool) (?K8 Bool) (?L8 Bool) (?M8 Bool) (?N8 Bool) (?O8 Bool) (?P8 Bool) (?Q8 Bool) (?R8 Bool) (?S8 Real) (?T8 Bool) (?U8 Bool) (?V8 Bool) (?W8 Bool) (?X8 Bool) (?Y8 Bool) (?Z8 Bool) (?A9 Bool) (?B9 Bool) (?C9 Bool) (?D9 Bool) (?E9 Bool) (?F9 Bool) (?G9 Bool) (?H9 Bool) (?I9 Bool) (?J9 Bool) (?K9 Bool) (?L9 Bool) (?M9 Bool) (?N9 Bool) (?O9 Bool) (?P9 Bool) (?Q9 Bool) (?R9 Bool) (?S9 Bool) (?T9 Bool) (?U9 Bool) (?V9 Bool) (?W9 Bool) (?X9 Bool) (?Y9 Bool) (?Z9 Bool) (?A10 Bool) (?B10 Real) (?C10 Bool) (?D10 Bool) (?E10 Bool) (?F10 Bool) (?G10 Bool) (?H10 Bool) (?I10 Bool) (?J10 Real) (?K10 Bool) (?L10 Bool) (?M10 Bool) (?N10 Bool) (?O10 Bool) (?P10 Bool) )(let (($x517748 (|cp-rel-__UFO__0| ?A ?B ?C ?D ?E ?F ?G ?H ?I ?J ?K ?L ?M ?N ?O ?P ?Q ?R ?S ?T ?U ?V)))
(let (($x575549 (or (not ?I4) (and ?S3 ?J4 ?V3) (and ?O3 ?K4 (not ?U3)) (and ?X ?L4 ?Z))))
(let (($x579645 (or (not ?I4) (and ?J4 (not ?K4) (not ?L4)) (and ?K4 (not ?J4) (not ?L4)) (and ?L4 (not ?J4) (not ?K4)))))
(let (($x636066 (not ?P4)))
(let (($x695829 (or $x636066 ?Q4)))
(let (($x750475 (not ?U4)))
(let (($x104254 (or $x750475 ?V4)))
(let (($x305403 (not ?X4)))
(let (($x606195 (or $x305403 ?Y4)))
(let (($x214867 (not ?F5)))
(let (($x304247 (or $x214867 ?G5)))
(let (($x719638 (not ?L5)))
(let (($x476381 (or $x719638 ?M5)))
(let (($x251025 (or (not ?Q5) (and ?L5 ?R5 ?S5))))
(let (($x858035 (or (not ?Q5) ?R5)))
(let (($x579440 (not ?W5)))
(let (($x576720 (or (not ?Z5) (and ?T5 ?A6 ?B6 (<= ?C6 ?V) (>= ?C6 ?V)) (and ?Q5 ?D6 ?E6 (<= ?C6 ?U) (>= ?C6 ?U)) (and ?U4 ?F6 ?G6 (<= ?C6 ?T) (>= ?C6 ?T)))))
(let (($x814089 (or (not ?Z5) (and ?A6 (not ?D6) (not ?F6)) (and ?D6 (not ?A6) (not ?F6)) (and ?F6 (not ?A6) (not ?D6)))))
(let (($x851311 (not ?H6)))
(let (($x609958 (or $x851311 ?I6)))
(let (($x642174 (not ?N6)))
(let (($x869096 (or $x642174 (and ?W5 ?O6) (and ?H6 ?P6 (not ?M6)) (and ?Z5 ?Q6 ?J6) (and ?T5 ?R6 (not ?B6)) (and ?Q5 ?S6 (not ?E6)) (and ?U4 ?T6 (not ?G6)))))
(let (($x506484 (or $x642174 (and ?O6 (not ?P6) (not ?Q6) (not ?R6) (not ?S6) (not ?T6)) (and ?P6 (not ?O6) (not ?Q6) (not ?R6) (not ?S6) (not ?T6)) (and ?Q6 (not ?O6) (not ?P6) (not ?R6) (not ?S6) (not ?T6)) (and ?R6 (not ?O6) (not ?P6) (not ?Q6) (not ?S6) (not ?T6)) (and ?S6 (not ?O6) (not ?P6) (not ?Q6) (not ?R6) (not ?T6)) (and ?T6 (not ?O6) (not ?P6) (not ?Q6) (not ?R6) (not ?S6)))))
(let (($x539193 (not ?U6)))
(let (($x152084 (or $x539193 ?V6)))
(let (($x574527 (not ?B7)))
(let (($x839779 (or $x574527 ?C7)))
(let (($x572388 (not ?G7)))
(let (($x175070 (or $x572388 (and ?B7 ?H7 ?I7))))
(let (($x84882 (or $x572388 ?H7)))
(let (($x455904 (not ?M7)))
(let (($x532135 (or $x455904 (and ?J7 ?N7 ?O7 (<= ?P7 ?V) (>= ?P7 ?V)) (and ?G7 ?Q7 ?R7 (<= ?P7 ?U) (>= ?P7 ?U)) (and ?U6 ?S7 ?T7 (<= ?P7 ?T) (>= ?P7 ?T)))))
(let (($x9391 (or $x455904 (and ?N7 (not ?Q7) (not ?S7)) (and ?Q7 (not ?N7) (not ?S7)) (and ?S7 (not ?N7) (not ?Q7)))))
(let (($x257368 (not ?U7)))
(let (($x902027 (or $x257368 (and ?M7 ?V7 (not ?W7) (<= ?X7 1.0) (>= ?X7 1.0)) (and ?N6 ?Y7 (<= ?X7 0.0) (>= ?X7 0.0)))))
(let (($x606639 (not ?B8)))
(let (($x342700 (or $x606639 ?C8)))
(let (($x578323 (not ?G8)))
(let (($x789278 (or $x578323 (and ?B8 ?H8 ?I8))))
(let (($x450893 (or $x578323 ?H8)))
(let (($x26315 (not ?M8)))
(let (($x344283 (not ?P8)))
(let (($x814146 (or $x344283 (and ?J8 ?Q8 ?R8 (<= ?S8 ?U) (>= ?S8 ?U)) (and ?G8 ?T8 ?U8 (<= ?S8 ?T) (>= ?S8 ?T)))))
(let (($x899306 (not ?V8)))
(let (($x312673 (or $x899306 ?W8)))
(let (($x252939 (not ?Y8)))
(let (($x307826 (or $x252939 ?Z8)))
(let (($x215859 (not ?B9)))
(let (($x584663 (or $x215859 (and ?M8 ?C9) (and ?V8 ?D9 (not ?A9)) (and ?P8 ?E9 ?X8) (and ?J8 ?F9 (not ?R8)) (and ?G8 ?G9 (not ?U8)))))
(let (($x576548 (or $x215859 (and ?C9 (not ?D9) (not ?E9) (not ?F9) (not ?G9)) (and ?D9 (not ?C9) (not ?E9) (not ?F9) (not ?G9)) (and ?E9 (not ?C9) (not ?D9) (not ?F9) (not ?G9)) (and ?F9 (not ?C9) (not ?D9) (not ?E9) (not ?G9)) (and ?G9 (not ?C9) (not ?D9) (not ?E9) (not ?F9)))))
(let (($x113414 (not ?N9)))
(let (($x144126 (or $x113414 ?O9)))
(let (($x255952 (not ?S9)))
(let (($x489603 (or $x255952 (and ?N9 ?T9 ?U9))))
(let (($x119618 (or $x255952 ?T9)))
(let (($x155423 (not ?Y9)))
(let (($x506563 (or $x155423 (and ?V9 ?Z9 ?A10 (<= ?B10 ?U) (>= ?B10 ?U)) (and ?S9 ?C10 ?D10 (<= ?B10 ?T) (>= ?B10 ?T)))))
(let (($x195564 (= ?R 1.0)))
(let (($x394264 (= ?I10 $x195564)))
(let (($x573263 (|cp-rel-bb.i| ?A ?B ?C ?D ?E ?F ?G ?H ?I ?J ?K ?L ?M ?N ?O ?P ?Q ?R ?S ?T ?U ?V)))
(let (($x561772 (and $x573263 (= ?A10 $x195564) (= ?D10 (= ?Q 1.0)) (= ?X9 (= ?N 2.0)) (= ?U9 (= ?N 1.0)) (= ?P9 (not (<= 2.0 ?N))) (= ?J9 (= ?X7 0.0)) (= ?A9 (= ?S8 ?P)) (= ?X8 (= ?S8 0.0)) (= ?R8 $x195564) (= ?U8 (= ?Q 1.0)) (= ?L8 (= ?N 2.0)) (= ?I8 (= ?N 1.0)) (= ?D8 (not (<= 2.0 ?N))) (= ?W7 (= ?P7 0.0)) (= ?O7 (= ?S 1.0)) (= ?R7 $x195564) (= ?L7 (= ?O 3.0)) (= ?I7 (= ?O 2.0)) (= ?D7 (not (<= 3.0 ?O))) (= ?T7 (and ?O10 ?P10)) (= ?P10 (= ?Q 1.0)) (= ?O10 (= ?O 1.0)) (= ?W6 (not (<= 2.0 ?O))) (= ?M6 (= ?C6 ?P)) (= ?J6 (= ?C6 0.0)) (= ?B6 (= ?S 1.0)) (= ?E6 $x195564) (= ?V5 (= ?O 3.0)) (= ?S5 (= ?O 2.0)) (= ?N5 (not (<= 3.0 ?O))) (= ?J5 (or ?M10 ?N10)) (= ?N10 (not $x195564)) (= ?M10 (= ?U 0.0)) (= ?G6 (and ?K10 ?L10)) (= ?L10 (= ?Q 1.0)) (= ?K10 (= ?O 1.0)) (= ?B5 (= ?J10 ?P)) (= ?W4 (not (<= 2.0 ?O))) (= ?T4 (= ?J10 0.0)) (= ?J10 (ite ?I10 ?U 0.0)) $x394264 (= ?O4 (= ?M 0.0)) (= ?V3 (= ?H4 0.0)) (= ?U3 (= ?B 0.0)) (= ?Q3 (= ?G4 0.0)) (= ?N3 (= ?C 0.0)) (= ?J3 (= ?F4 0.0)) (= ?G3 (= ?D 0.0)) (= ?C3 (= ?E4 0.0)) (= ?Z2 (= ?E 0.0)) (= ?V2 (= ?D4 0.0)) (= ?S2 (= ?F 0.0)) (= ?O2 (= ?C4 0.0)) (= ?L2 (= ?G 0.0)) (= ?H2 (= ?B4 0.0)) (= ?E2 (= ?H 0.0)) (= ?A2 (= ?A4 0.0)) (= ?X1 (= ?I 0.0)) (= ?T1 (= ?Z3 0.0)) (= ?Q1 (= ?J 0.0)) (= ?M1 (= ?Y3 0.0)) (= ?J1 (= ?K 0.0)) (= ?F1 (= ?X3 0.0)) (= ?C1 (= ?L 0.0)) (= ?W3 (+ 1.0 ?A)) (= ?Z (not (<= ?A 3.0))) (or ?H5 ?E10) (or (not ?E10) (and ?F10 (not ?H10)) (and ?H10 (not ?F10))) (or (not ?E10) (and ?Y9 ?F10 (not ?G10)) (and ?B9 ?H10 ?J9)) (or $x155423 (and ?Z9 (not ?C10)) (and ?C10 (not ?Z9))) $x506563 (or (not ?V9) ?W9) (or (not ?V9) (and ?Q9 ?W9 ?X9)) $x119618 $x489603 (or (not ?Q9) ?R9) (or (not ?Q9) (and ?L9 ?R9 (not ?P9))) $x144126 (or $x113414 (and ?L9 ?O9 ?P9)) (or (not ?L9) ?M9) (or (not ?L9) (and ?H9 ?M9)) (or (not ?H9) (and ?I9 (not ?K9)) (and ?K9 (not ?I9))) (or (not ?H9) (and ?B9 ?I9 (not ?J9)) (and ?Y8 ?K9)) $x576548 $x584663 $x307826 (or $x252939 (and ?V8 ?Z8 ?A9)) $x312673 (or $x899306 (and ?P8 ?W8 (not ?X8))) (or $x344283 (and ?Q8 (not ?T8)) (and ?T8 (not ?Q8))) $x814146 (or $x26315 (and ?N8 (not ?O8)) (and ?O8 (not ?N8))) (or $x26315 (and ?B8 ?N8 (not ?I8)) (and ?E8 ?O8 (not ?L8))) (or (not ?J8) ?K8) (or (not ?J8) (and ?E8 ?K8 ?L8)) $x450893 $x789278 (or (not ?E8) ?F8) (or (not ?E8) (and ?Z7 ?F8 (not ?D8))) $x342700 (or $x606639 (and ?Z7 ?C8 ?D8)) (or (not ?Z7) ?A8) (or (not ?Z7) (and ?U7 ?A8)) (or $x257368 (and ?V7 (not ?Y7)) (and ?Y7 (not ?V7))) $x902027 $x9391 $x532135 (or (not ?J7) ?K7) (or (not ?J7) (and ?E7 ?K7 ?L7)) $x84882 $x175070 (or (not ?E7) ?F7) (or (not ?E7) (and ?Z6 ?F7 (not ?D7))) $x839779 (or $x574527 (and ?Z6 ?C7 ?D7)) (or (not ?Z6) ?A7) (or (not ?Z6) (and ?X6 ?A7)) (or (not ?X6) ?Y6) (or (not ?X6) (and ?K6 ?Y6 (not ?W6))) $x152084 (or $x539193 (and ?K6 ?V6 ?W6)) $x506484 $x869096 (or (not ?K6) ?L6) (or (not ?K6) (and ?H6 ?L6 ?M6)) $x609958 (or $x851311 (and ?Z5 ?I6 (not ?J6))) $x814089 $x576720 (or $x579440 (and ?X5 (not ?Y5)) (and ?Y5 (not ?X5))) (or $x579440 (and ?L5 ?X5 (not ?S5)) (and ?O5 ?Y5 (not ?V5))) (or (not ?T5) ?U5) (or (not ?T5) (and ?O5 ?U5 ?V5)) $x858035 $x251025 (or (not ?O5) ?P5) (or (not ?O5) (and ?F5 ?P5 (not ?N5))) $x476381 (or $x719638 (and ?F5 ?M5 ?N5)) (or (not ?H5) (and ?I5 (not ?K5)) (and ?K5 (not ?I5))) (or (not ?H5) (and ?Z4 ?I5 (not ?J5)) (and ?C5 ?K5)) $x304247 (or $x214867 (and ?X4 ?G5)) (or (not ?C5) (and ?D5 (not ?E5)) (and ?E5 (not ?D5))) (or (not ?C5) (and ?R4 ?D5 (not ?B5)) (and ?M4 ?E5 ?T4)) (or (not ?Z4) ?A5) (or (not ?Z4) (and ?R4 ?A5 ?B5)) $x606195 (or $x305403 (and ?P4 ?Y4 (not ?W4))) $x104254 (or $x750475 (and ?P4 ?V4 ?W4)) (or (not ?R4) ?S4) (or (not ?R4) (and ?M4 ?S4 (not ?T4))) $x695829 (or $x636066 (and ?I4 ?Q4 (not ?O4))) (or (not ?M4) ?N4) (or (not ?M4) (and ?I4 ?N4 ?O4)) $x579645 $x575549 (or (not ?S3) ?T3) (or (not ?S3) (and ?O3 ?T3 ?U3)) (or (not ?O3) (and ?P3 (not ?R3)) (and ?R3 (not ?P3))) (or (not ?O3) (and ?L3 ?P3 ?Q3) (and ?H3 ?R3 (not ?N3))) (or (not ?L3) ?M3) (or (not ?L3) (and ?H3 ?M3 ?N3)) (or (not ?H3) (and ?I3 (not ?K3)) (and ?K3 (not ?I3))) (or (not ?H3) (and ?E3 ?I3 ?J3) (and ?A3 ?K3 (not ?G3))) (or (not ?E3) ?F3) (or (not ?E3) (and ?A3 ?F3 ?G3)) (or (not ?A3) (and ?B3 (not ?D3)) (and ?D3 (not ?B3))) (or (not ?A3) (and ?X2 ?B3 ?C3) (and ?T2 ?D3 (not ?Z2))) (or (not ?X2) ?Y2) (or (not ?X2) (and ?T2 ?Y2 ?Z2)) (or (not ?T2) (and ?U2 (not ?W2)) (and ?W2 (not ?U2))) (or (not ?T2) (and ?Q2 ?U2 ?V2) (and ?M2 ?W2 (not ?S2))) (or (not ?Q2) ?R2) (or (not ?Q2) (and ?M2 ?R2 ?S2)) (or (not ?M2) (and ?N2 (not ?P2)) (and ?P2 (not ?N2))) (or (not ?M2) (and ?J2 ?N2 ?O2) (and ?F2 ?P2 (not ?L2))) (or (not ?J2) ?K2) (or (not ?J2) (and ?F2 ?K2 ?L2)) (or (not ?F2) (and ?G2 (not ?I2)) (and ?I2 (not ?G2))) (or (not ?F2) (and ?C2 ?G2 ?H2) (and ?Y1 ?I2 (not ?E2))) (or (not ?C2) ?D2) (or (not ?C2) (and ?Y1 ?D2 ?E2)) (or (not ?Y1) (and ?Z1 (not ?B2)) (and ?B2 (not ?Z1))) (or (not ?Y1) (and ?V1 ?Z1 ?A2) (and ?R1 ?B2 (not ?X1))) (or (not ?V1) ?W1) (or (not ?V1) (and ?R1 ?W1 ?X1)) (or (not ?R1) (and ?S1 (not ?U1)) (and ?U1 (not ?S1))) (or (not ?R1) (and ?O1 ?S1 ?T1) (and ?K1 ?U1 (not ?Q1))) (or (not ?O1) ?P1) (or (not ?O1) (and ?K1 ?P1 ?Q1)) (or (not ?K1) (and ?L1 (not ?N1)) (and ?N1 (not ?L1))) (or (not ?K1) (and ?H1 ?L1 ?M1) (and ?D1 ?N1 (not ?J1))) (or (not ?H1) ?I1) (or (not ?H1) (and ?D1 ?I1 ?J1)) (or (not ?D1) (and ?E1 (not ?G1)) (and ?G1 (not ?E1))) (or (not ?D1) (and ?A1 ?E1 ?F1) (and ?W ?G1 (not ?C1))) (or (not ?A1) ?B1) (or (not ?A1) (and ?W ?B1 ?C1)) (or (not ?W) ?Y) (or (not ?W) (and ?X ?Y (not ?Z))) (= ?G10 (= ?B10 0.0)))))
(=> $x561772 $x517748)))))))))))))))))))))))))))))))))))))))))))))))))))))))))))))))
)
(assert (forall ((?A Real) (?B Real) (?C Real) (?D Real) (?E Real) (?F Real) (?G Real) (?H Real) (?I Real) (?J Real) (?K Real) (?L Real) (?M Real) (?N Real) (?O Real) (?P Real) (?Q Real) (?R Real) (?S Real) (?T Real) (?U Real) (?V Real) (?W Bool) )(let (($x579593 (|cp-rel-__UFO__0| ?A ?B ?C ?D ?E ?F ?G ?H ?I ?J ?K ?L ?M ?N ?O ?P ?Q ?R ?S ?T ?U ?V)))
(=> (and $x579593 (= ?W true)) $x579593)))
)
(assert (forall ((?A Real) (?B Real) (?C Real) (?D Real) (?E Real) (?F Real) (?G Real) (?H Real) (?I Real) (?J Real) (?K Real) (?L Real) (?M Real) (?N Real) (?O Real) (?P Real) (?Q Real) (?R Real) (?S Real) (?T Real) (?U Real) (?V Real) (?W Bool) (?X Bool) (?Y Bool) (?Z Bool) (?A1 Bool) (?B1 Bool) (?C1 Bool) (?D1 Bool) (?E1 Bool) (?F1 Bool) (?G1 Bool) (?H1 Bool) (?I1 Bool) (?J1 Bool) (?K1 Bool) (?L1 Bool) (?M1 Bool) (?N1 Bool) (?O1 Bool) (?P1 Bool) (?Q1 Bool) (?R1 Bool) (?S1 Bool) (?T1 Bool) (?U1 Bool) (?V1 Bool) (?W1 Bool) (?X1 Bool) (?Y1 Bool) (?Z1 Bool) (?A2 Bool) (?B2 Bool) (?C2 Bool) (?D2 Bool) (?E2 Bool) (?F2 Bool) (?G2 Bool) (?H2 Bool) (?I2 Bool) (?J2 Bool) (?K2 Bool) (?L2 Bool) (?M2 Bool) (?N2 Bool) (?O2 Bool) (?P2 Bool) (?Q2 Bool) (?R2 Bool) (?S2 Bool) (?T2 Bool) (?U2 Bool) (?V2 Bool) (?W2 Bool) (?X2 Bool) (?Y2 Bool) (?Z2 Bool) (?A3 Bool) (?B3 Bool) (?C3 Bool) (?D3 Bool) (?E3 Bool) (?F3 Bool) (?G3 Bool) (?H3 Bool) (?I3 Bool) (?J3 Bool) (?K3 Bool) (?L3 Bool) (?M3 Bool) (?N3 Bool) (?O3 Bool) (?P3 Bool) (?Q3 Bool) (?R3 Bool) (?S3 Bool) (?T3 Bool) (?U3 Bool) (?V3 Bool) (?W3 Real) (?X3 Real) (?Y3 Real) (?Z3 Real) (?A4 Real) (?B4 Real) (?C4 Real) (?D4 Real) (?E4 Real) (?F4 Real) (?G4 Real) (?H4 Real) (?I4 Bool) (?J4 Bool) (?K4 Bool) (?L4 Bool) (?M4 Bool) (?N4 Bool) (?O4 Bool) (?P4 Bool) (?Q4 Bool) (?R4 Bool) (?S4 Bool) (?T4 Bool) (?U4 Bool) (?V4 Bool) (?W4 Bool) (?X4 Bool) (?Y4 Bool) (?Z4 Bool) (?A5 Bool) (?B5 Bool) (?C5 Bool) (?D5 Bool) (?E5 Bool) (?F5 Bool) (?G5 Bool) (?H5 Bool) (?I5 Bool) (?J5 Bool) (?K5 Bool) (?L5 Bool) (?M5 Bool) (?N5 Bool) (?O5 Bool) (?P5 Bool) (?Q5 Bool) (?R5 Bool) (?S5 Bool) (?T5 Bool) (?U5 Bool) (?V5 Bool) (?W5 Real) (?X5 Bool) (?Y5 Bool) (?Z5 Bool) (?A6 Bool) (?B6 Bool) (?C6 Bool) (?D6 Bool) (?E6 Bool) (?F6 Bool) (?G6 Bool) (?H6 Bool) (?I6 Bool) (?J6 Bool) (?K6 Bool) (?L6 Bool) (?M6 Bool) (?N6 Bool) (?O6 Bool) (?P6 Bool) (?Q6 Bool) (?R6 Bool) (?S6 Bool) (?T6 Bool) (?U6 Bool) (?V6 Bool) (?W6 Bool) (?X6 Bool) (?Y6 Bool) (?Z6 Bool) (?A7 Bool) (?B7 Bool) (?C7 Bool) (?D7 Bool) (?E7 Bool) (?F7 Bool) (?G7 Bool) (?H7 Bool) (?I7 Bool) (?J7 Real) (?K7 Bool) (?L7 Bool) (?M7 Bool) (?N7 Bool) (?O7 Bool) (?P7 Bool) (?Q7 Bool) (?R7 Real) (?S7 Bool) (?T7 Bool) (?U7 Bool) (?V7 Bool) (?W7 Bool) (?X7 Bool) (?Y7 Bool) (?Z7 Bool) (?A8 Bool) (?B8 Bool) (?C8 Bool) (?D8 Bool) (?E8 Bool) (?F8 Bool) (?G8 Bool) (?H8 Bool) (?I8 Bool) (?J8 Bool) (?K8 Bool) (?L8 Bool) (?M8 Real) (?N8 Bool) (?O8 Bool) (?P8 Bool) (?Q8 Bool) (?R8 Bool) (?S8 Bool) (?T8 Bool) (?U8 Bool) (?V8 Bool) (?W8 Bool) (?X8 Bool) (?Y8 Bool) (?Z8 Bool) (?A9 Bool) (?B9 Bool) (?C9 Bool) (?D9 Bool) (?E9 Bool) (?F9 Bool) (?G9 Bool) (?H9 Bool) (?I9 Bool) (?J9 Bool) (?K9 Bool) (?L9 Bool) (?M9 Bool) (?N9 Bool) (?O9 Bool) (?P9 Bool) (?Q9 Bool) (?R9 Bool) (?S9 Bool) (?T9 Bool) (?U9 Bool) (?V9 Real) (?W9 Bool) (?X9 Bool) (?Y9 Bool) (?Z9 Bool) (?A10 Real) (?B10 Bool) (?C10 Bool) (?D10 Bool) (?E10 Bool) (?F10 Bool) (?G10 Bool) (?H10 Bool) (?I10 Bool) (?J10 Bool) (?K10 Bool) (?L10 Bool) (?M10 Bool) )(let (($x871916 (not ?I4)))
(let (($x310772 (or $x871916 (and ?S3 ?J4 ?V3) (and ?O3 ?K4 (not ?U3)) (and ?X ?L4 ?Z))))
(let (($x572003 (or $x871916 (and ?J4 (not ?K4) (not ?L4)) (and ?K4 (not ?J4) (not ?L4)) (and ?L4 (not ?J4) (not ?K4)))))
(let (($x636066 (not ?M4)))
(let (($x695829 (or $x636066 ?N4)))
(let (($x750475 (not ?R4)))
(let (($x104254 (or $x750475 ?S4)))
(let (($x305403 (not ?U4)))
(let (($x606195 (or $x305403 ?V4)))
(let (($x214867 (not ?C5)))
(let (($x304247 (or $x214867 ?D5)))
(let (($x719638 (not ?I5)))
(let (($x476381 (or $x719638 ?J5)))
(let (($x251025 (or (not ?N5) (and ?I5 ?O5 ?P5))))
(let (($x858035 (or (not ?N5) ?O5)))
(let (($x394887 (not ?Q5)))
(let (($x579440 (not ?T5)))
(let (($x783773 (or $x579440 (and ?N5 ?U5 ?V5 (<= ?W5 ?V) (>= ?W5 ?V)) (and ?K5 ?X5 ?Y5 (<= ?W5 ?U) (>= ?W5 ?U)) (and ?U4 ?Z5 ?A6 (<= ?W5 ?T) (>= ?W5 ?T)))))
(let (($x628310 (or $x579440 (and ?U5 (not ?X5) (not ?Z5)) (and ?X5 (not ?U5) (not ?Z5)) (and ?Z5 (not ?U5) (not ?X5)))))
(let (($x851311 (not ?E6)))
(let (($x609958 (or $x851311 ?F6)))
(let (($x212696 (not ?H6)))
(let (($x285255 (or $x212696 (and ?Q5 ?I6) (and ?B6 ?J6 (not ?G6)) (and ?T5 ?K6 ?D6) (and ?N5 ?L6 (not ?V5)) (and ?K5 ?M6 (not ?Y5)) (and ?U4 ?N6 (not ?A6)))))
(let (($x206497 (or $x212696 (and ?I6 (not ?J6) (not ?K6) (not ?L6) (not ?M6) (not ?N6)) (and ?J6 (not ?I6) (not ?K6) (not ?L6) (not ?M6) (not ?N6)) (and ?K6 (not ?I6) (not ?J6) (not ?L6) (not ?M6) (not ?N6)) (and ?L6 (not ?I6) (not ?J6) (not ?K6) (not ?M6) (not ?N6)) (and ?M6 (not ?I6) (not ?J6) (not ?K6) (not ?L6) (not ?N6)) (and ?N6 (not ?I6) (not ?J6) (not ?K6) (not ?L6) (not ?M6)))))
(let (($x539193 (not ?R6)))
(let (($x152084 (or $x539193 ?S6)))
(let (($x574527 (not ?Y6)))
(let (($x839779 (or $x574527 ?Z6)))
(let (($x572388 (not ?D7)))
(let (($x175070 (or $x572388 (and ?Y6 ?E7 ?F7))))
(let (($x84882 (or $x572388 ?E7)))
(let (($x839706 (or (not ?H10) (and ?V6 ?I10 (not ?C7)) (and ?Y6 ?J10 (not ?F7)))))
(let (($x476242 (not ?G7)))
(let (($x135210 (or $x476242 (and ?D7 ?H7 ?I7 (<= ?J7 ?V) (>= ?J7 ?V)) (and ?A7 ?K7 ?L7 (<= ?J7 ?U) (>= ?J7 ?U)) (and ?O6 ?M7 ?N7 (<= ?J7 ?T) (>= ?J7 ?T)))))
(let (($x899155 (or $x476242 (and ?H7 (not ?K7) (not ?M7)) (and ?K7 (not ?H7) (not ?M7)) (and ?M7 (not ?H7) (not ?K7)))))
(let (($x513545 (not ?O7)))
(let (($x48705 (or $x513545 (and ?G7 ?P7 (not ?Q7) (<= ?R7 1.0) (>= ?R7 1.0)) (and ?H6 ?S7 (<= ?R7 0.0) (>= ?R7 0.0)))))
(let (($x814943 (not ?T7)))
(let (($x120399 (or $x814943 ?U7)))
(let (($x606639 (not ?Y7)))
(let (($x342700 (or $x606639 ?Z7)))
(let (($x848437 (not ?A8)))
(let (($x253680 (or $x848437 ?B8)))
(let (($x578323 (not ?D8)))
(let (($x789278 (or $x578323 (and ?Y7 ?E8 ?F8))))
(let (($x450893 (or $x578323 ?E8)))
(let (($x446204 (not ?G8)))
(let (($x26315 (not ?J8)))
(let (($x342309 (or $x26315 (and ?D8 ?K8 ?L8 (<= ?M8 ?U) (>= ?M8 ?U)) (and ?A8 ?N8 ?O8 (<= ?M8 ?T) (>= ?M8 ?T)))))
(let (($x899306 (not ?S8)))
(let (($x312673 (or $x899306 ?T8)))
(let (($x252939 (not ?V8)))
(let (($x855190 (or $x252939 (and ?G8 ?W8) (and ?P8 ?X8 (not ?U8)) (and ?J8 ?Y8 ?R8) (and ?D8 ?Z8 (not ?L8)) (and ?A8 ?A9 (not ?O8)))))
(let (($x794803 (or $x252939 (and ?W8 (not ?X8) (not ?Y8) (not ?Z8) (not ?A9)) (and ?X8 (not ?W8) (not ?Y8) (not ?Z8) (not ?A9)) (and ?Y8 (not ?W8) (not ?X8) (not ?Z8) (not ?A9)) (and ?Z8 (not ?W8) (not ?X8) (not ?Y8) (not ?A9)) (and ?A9 (not ?W8) (not ?X8) (not ?Y8) (not ?Z8)))))
(let (($x113414 (not ?K9)))
(let (($x144126 (or $x113414 ?L9)))
(let (($x255952 (not ?P9)))
(let (($x489603 (or $x255952 (and ?K9 ?Q9 ?R9))))
(let (($x119618 (or $x255952 ?Q9)))
(let (($x506434 (or (not ?K10) (and ?H9 ?L10 (not ?O9)) (and ?K9 ?M10 (not ?R9)))))
(let (($x460651 (not ?S9)))
(let (($x747909 (or $x460651 (and ?P9 ?T9 ?U9 (<= ?V9 ?U) (>= ?V9 ?U)) (and ?M9 ?W9 ?X9 (<= ?V9 ?T) (>= ?V9 ?T)))))
(let (($x579403 (or ?K10 ?H10 (and ?Z4 ?E5) (and ?S9 ?Y9) (and ?P9 (not ?U9)) (and ?M9 (not ?X9)) (and ?G7 ?Q7) (and ?D7 (not ?I7)) (and ?A7 (not ?L7)) (and ?O6 (not ?N7)))))
(let (($x195564 (= ?O 1.0)))
(let (($x394264 (= ?F10 $x195564)))
(let (($x203529 (|cp-rel-bb.i| ?A ?B ?C ?D ?E ?F ?G ?H ?I ?J ?K ?L ?M ?N ?O ?P ?Q ?R ?S ?T ?U ?V)))
(let (($x848336 (and $x203529 (= ?U9 (= ?R 1.0)) (= ?X9 (= ?Q 1.0)) (= ?R9 (= ?N 2.0)) (= ?O9 (= ?N 1.0)) (= ?J9 (not (<= 2.0 ?N))) (= ?D9 (= ?R7 0.0)) (= ?U8 (= ?M8 ?P)) (= ?R8 (= ?M8 0.0)) (= ?L8 (= ?R 1.0)) (= ?O8 (= ?Q 1.0)) (= ?F8 (= ?N 2.0)) (= ?C8 (= ?N 1.0)) (= ?X7 (not (<= 2.0 ?N))) (= ?Q7 (= ?J7 0.0)) (= ?I7 (= ?S 1.0)) (= ?L7 (= ?R 1.0)) (= ?F7 (= ?O 3.0)) (= ?C7 (= ?O 2.0)) (= ?X6 (not (<= 3.0 ?O))) (= ?N7 (and ?F10 ?G10)) (= ?G10 (= ?Q 1.0)) $x394264 (= ?Q6 (not (<= 2.0 ?O))) (= ?G6 (= ?W5 ?P)) (= ?D6 (= ?W5 0.0)) (= ?V5 (= ?S 1.0)) (= ?Y5 (= ?R 1.0)) (= ?P5 (= ?O 3.0)) (= ?M5 (= ?O 2.0)) (= ?H5 (not (<= 3.0 ?O))) (= ?E5 (or ?D10 ?E10)) (= ?E10 (not (= ?R 1.0))) (= ?D10 (= ?U 0.0)) (= ?A6 (and ?B10 ?C10)) (= ?C10 (= ?Q 1.0)) (= ?B10 $x195564) (= ?B5 (= ?A10 ?P)) (= ?W4 (not (<= 2.0 ?O))) (= ?T4 (= ?A10 0.0)) (= ?A10 (ite ?Z9 ?U 0.0)) (= ?Z9 (= ?R 1.0)) (= ?O4 (= ?M 0.0)) (= ?V3 (= ?H4 0.0)) (= ?U3 (= ?B 0.0)) (= ?Q3 (= ?G4 0.0)) (= ?N3 (= ?C 0.0)) (= ?J3 (= ?F4 0.0)) (= ?G3 (= ?D 0.0)) (= ?C3 (= ?E4 0.0)) (= ?Z2 (= ?E 0.0)) (= ?V2 (= ?D4 0.0)) (= ?S2 (= ?F 0.0)) (= ?O2 (= ?C4 0.0)) (= ?L2 (= ?G 0.0)) (= ?H2 (= ?B4 0.0)) (= ?E2 (= ?H 0.0)) (= ?A2 (= ?A4 0.0)) (= ?X1 (= ?I 0.0)) (= ?T1 (= ?Z3 0.0)) (= ?Q1 (= ?J 0.0)) (= ?M1 (= ?Y3 0.0)) (= ?J1 (= ?K 0.0)) (= ?F1 (= ?X3 0.0)) (= ?C1 (= ?L 0.0)) (= ?W3 (+ 1.0 ?A)) (= ?Z (not (<= ?A 3.0))) $x579403 (or $x460651 (and ?T9 (not ?W9)) (and ?W9 (not ?T9))) $x747909 (or (not ?K10) (and ?L10 (not ?M10)) (and ?M10 (not ?L10))) $x506434 $x119618 $x489603 (or (not ?M9) ?N9) (or (not ?M9) (and ?H9 ?N9 ?O9)) $x144126 (or $x113414 (and ?F9 ?L9 (not ?J9))) (or (not ?H9) ?I9) (or (not ?H9) (and ?F9 ?I9 ?J9)) (or (not ?F9) ?G9) (or (not ?F9) (and ?B9 ?G9)) (or (not ?B9) (and ?C9 (not ?E9)) (and ?E9 (not ?C9))) (or (not ?B9) (and ?V8 ?C9 (not ?D9)) (and ?S8 ?E9)) $x794803 $x855190 $x312673 (or $x899306 (and ?P8 ?T8 ?U8)) (or (not ?P8) ?Q8) (or (not ?P8) (and ?J8 ?Q8 (not ?R8))) (or $x26315 (and ?K8 (not ?N8)) (and ?N8 (not ?K8))) $x342309 (or $x446204 (and ?H8 (not ?I8)) (and ?I8 (not ?H8))) (or $x446204 (and ?V7 ?H8 (not ?C8)) (and ?Y7 ?I8 (not ?F8))) $x450893 $x789278 $x253680 (or $x848437 (and ?V7 ?B8 ?C8)) $x342700 (or $x606639 (and ?T7 ?Z7 (not ?X7))) (or (not ?V7) ?W7) (or (not ?V7) (and ?T7 ?W7 ?X7)) $x120399 (or $x814943 (and ?O7 ?U7)) (or $x513545 (and ?P7 (not ?S7)) (and ?S7 (not ?P7))) $x48705 $x899155 $x135210 (or (not ?H10) (and ?I10 (not ?J10)) (and ?J10 (not ?I10))) $x839706 $x84882 $x175070 (or (not ?A7) ?B7) (or (not ?A7) (and ?V6 ?B7 ?C7)) $x839779 (or $x574527 (and ?T6 ?Z6 (not ?X6))) (or (not ?V6) ?W6) (or (not ?V6) (and ?T6 ?W6 ?X6)) (or (not ?T6) ?U6) (or (not ?T6) (and ?R6 ?U6)) $x152084 (or $x539193 (and ?E6 ?S6 (not ?Q6))) (or (not ?O6) ?P6) (or (not ?O6) (and ?E6 ?P6 ?Q6)) $x206497 $x285255 $x609958 (or $x851311 (and ?B6 ?F6 ?G6)) (or (not ?B6) ?C6) (or (not ?B6) (and ?T5 ?C6 (not ?D6))) $x628310 $x783773 (or $x394887 (and ?R5 (not ?S5)) (and ?S5 (not ?R5))) (or $x394887 (and ?F5 ?R5 (not ?M5)) (and ?I5 ?S5 (not ?P5))) $x858035 $x251025 (or (not ?K5) ?L5) (or (not ?K5) (and ?F5 ?L5 ?M5)) $x476381 (or $x719638 (and ?C5 ?J5 (not ?H5))) (or (not ?F5) ?G5) (or (not ?F5) (and ?C5 ?G5 ?H5)) $x304247 (or $x214867 (and ?X4 ?D5)) (or (not ?Z4) ?A5) (or (not ?Z4) (and ?R4 ?A5 ?B5)) (or (not ?X4) ?Y4) (or (not ?X4) (and ?P4 ?Y4 (not ?W4))) $x606195 (or $x305403 (and ?P4 ?V4 ?W4)) $x104254 (or $x750475 (and ?M4 ?S4 (not ?T4))) (or (not ?P4) ?Q4) (or (not ?P4) (and ?I4 ?Q4 (not ?O4))) $x695829 (or $x636066 (and ?I4 ?N4 ?O4)) $x572003 $x310772 (or (not ?S3) ?T3) (or (not ?S3) (and ?O3 ?T3 ?U3)) (or (not ?O3) (and ?P3 (not ?R3)) (and ?R3 (not ?P3))) (or (not ?O3) (and ?L3 ?P3 ?Q3) (and ?H3 ?R3 (not ?N3))) (or (not ?L3) ?M3) (or (not ?L3) (and ?H3 ?M3 ?N3)) (or (not ?H3) (and ?I3 (not ?K3)) (and ?K3 (not ?I3))) (or (not ?H3) (and ?E3 ?I3 ?J3) (and ?A3 ?K3 (not ?G3))) (or (not ?E3) ?F3) (or (not ?E3) (and ?A3 ?F3 ?G3)) (or (not ?A3) (and ?B3 (not ?D3)) (and ?D3 (not ?B3))) (or (not ?A3) (and ?X2 ?B3 ?C3) (and ?T2 ?D3 (not ?Z2))) (or (not ?X2) ?Y2) (or (not ?X2) (and ?T2 ?Y2 ?Z2)) (or (not ?T2) (and ?U2 (not ?W2)) (and ?W2 (not ?U2))) (or (not ?T2) (and ?Q2 ?U2 ?V2) (and ?M2 ?W2 (not ?S2))) (or (not ?Q2) ?R2) (or (not ?Q2) (and ?M2 ?R2 ?S2)) (or (not ?M2) (and ?N2 (not ?P2)) (and ?P2 (not ?N2))) (or (not ?M2) (and ?J2 ?N2 ?O2) (and ?F2 ?P2 (not ?L2))) (or (not ?J2) ?K2) (or (not ?J2) (and ?F2 ?K2 ?L2)) (or (not ?F2) (and ?G2 (not ?I2)) (and ?I2 (not ?G2))) (or (not ?F2) (and ?C2 ?G2 ?H2) (and ?Y1 ?I2 (not ?E2))) (or (not ?C2) ?D2) (or (not ?C2) (and ?Y1 ?D2 ?E2)) (or (not ?Y1) (and ?Z1 (not ?B2)) (and ?B2 (not ?Z1))) (or (not ?Y1) (and ?V1 ?Z1 ?A2) (and ?R1 ?B2 (not ?X1))) (or (not ?V1) ?W1) (or (not ?V1) (and ?R1 ?W1 ?X1)) (or (not ?R1) (and ?S1 (not ?U1)) (and ?U1 (not ?S1))) (or (not ?R1) (and ?O1 ?S1 ?T1) (and ?K1 ?U1 (not ?Q1))) (or (not ?O1) ?P1) (or (not ?O1) (and ?K1 ?P1 ?Q1)) (or (not ?K1) (and ?L1 (not ?N1)) (and ?N1 (not ?L1))) (or (not ?K1) (and ?H1 ?L1 ?M1) (and ?D1 ?N1 (not ?J1))) (or (not ?H1) ?I1) (or (not ?H1) (and ?D1 ?I1 ?J1)) (or (not ?D1) (and ?E1 (not ?G1)) (and ?G1 (not ?E1))) (or (not ?D1) (and ?A1 ?E1 ?F1) (and ?W ?G1 (not ?C1))) (or (not ?A1) ?B1) (or (not ?A1) (and ?W ?B1 ?C1)) (or (not ?W) ?Y) (or (not ?W) (and ?X ?Y (not ?Z))) (= ?Y9 (= ?V9 0.0)))))
(=> $x848336 |cp-rel-UnifiedReturnBlock|)))))))))))))))))))))))))))))))))))))))))))))))))))))))))))))))))))))
)
(assert (not cp-rel-UnifiedReturnBlock))
(check-sat)
